NAME 
ROWS
 N  OBJ
 L  R0      
 L  R1      
 L  R2      
 E  R3      
 E  R4      
 E  R5      
 E  R6      
 E  R7      
 E  R8      
 E  R9      
 E  R10     
 E  R11     
 E  R12     
 E  R13     
 E  R14     
 E  R15     
 E  R16     
 E  R17     
 E  R18     
 E  R19     
 E  R20     
 E  R21     
 E  R22     
COLUMNS
    MARKER    'MARKER'                 'INTORG'
    I0(10)    OBJ       -16
    I0(10)    R0        -117
    I0(10)    R1        -123
    I0(10)    R2        -24
    I0(10)    R3        -1
    I0(10)    R4        18
    I0(10)    R8        4
    I0(10)    R9        2
    I0(10)    R11       12
    I0(10)    R13       12
    I0(10)    R22       1
    I1(12)    OBJ       157
    I1(12)    R0        147
    I1(12)    R1        -175
    I1(12)    R2        -79
    I1(12)    R3        7
    I1(12)    R5        14
    I1(12)    R6        4
    I1(12)    R7        8
    I1(12)    R8        15
    I1(12)    R9        3
    I1(12)    R10       17
    I1(12)    R11       2
    I1(12)    R22       1
    I2(9)     OBJ       123
    I2(9)     R0        23
    I2(9)     R1        -58
    I2(9)     R2        137
    I2(9)     R4        -1
    I2(9)     R6        12
    I2(9)     R7        15
    I2(9)     R13       -1
    I2(9)     R14       5
    I2(9)     R22       1
    I3(14)    OBJ       108
    I3(14)    R0        -196
    I3(14)    R1        -83
    I3(14)    R2        23
    I3(14)    R4        8
    I3(14)    R5        16
    I3(14)    R6        8
    I3(14)    R7        5
    I3(14)    R8        15
    I3(14)    R9        10
    I3(14)    R10       1
    I3(14)    R11       1
    I3(14)    R12       2
    I3(14)    R13       12
    I3(14)    R22       1
    I4(9)     OBJ       46
    I4(9)     R0        -49
    I4(9)     R1        104
    I4(9)     R4        3
    I4(9)     R5        13
    I4(9)     R7        19
    I4(9)     R9        10
    I4(9)     R11       14
    I4(9)     R13       9
    I4(9)     R22       1
    I5(12)    OBJ       115
    I5(12)    R0        -71
    I5(12)    R1        -199
    I5(12)    R2        184
    I5(12)    R4        9
    I5(12)    R5        13
    I5(12)    R6        13
    I5(12)    R7        3
    I5(12)    R8        4
    I5(12)    R9        2
    I5(12)    R12       11
    I5(12)    R13       3
    I5(12)    R22       1
    I6(11)    OBJ       90
    I6(11)    R0        191
    I6(11)    R1        50
    I6(11)    R2        -179
    I6(11)    R3        14
    I6(11)    R6        16
    I6(11)    R8        13
    I6(11)    R11       14
    I6(11)    R12       8
    I6(11)    R13       8
    I6(11)    R14       1
    I6(11)    R22       1
    I7(10)    OBJ       -140
    I7(10)    R0        40
    I7(10)    R1        -198
    I7(10)    R2        -148
    I7(10)    R3        10
    I7(10)    R6        12
    I7(10)    R7        1
    I7(10)    R8        5
    I7(10)    R11       19
    I7(10)    R13       6
    I7(10)    R22       1
    I8(10)    OBJ       87
    I8(10)    R0        -168
    I8(10)    R1        90
    I8(10)    R2        -115
    I8(10)    R3        19
    I8(10)    R5        -1
    I8(10)    R7        7
    I8(10)    R8        18
    I8(10)    R13       12
    I8(10)    R14       17
    I8(10)    R22       1
    I9(10)    OBJ       199
    I9(10)    R0        -139
    I9(10)    R1        -31
    I9(10)    R2        -107
    I9(10)    R6        -1
    I9(10)    R7        8
    I9(10)    R9        18
    I9(10)    R10       6
    I9(10)    R11       17
    I9(10)    R12       17
    I9(10)    R22       1
    I10(7)    OBJ       175
    I10(7)    R0        199
    I10(7)    R1        -200
    I10(7)    R2        26
    I10(7)    R5        5
    I10(7)    R7        17
    I10(7)    R8        16
    I10(7)    R22       1
    I11(10)   OBJ       35
    I11(10)   R0        172
    I11(10)   R1        69
    I11(10)   R2        -35
    I11(10)   R5        13
    I11(10)   R6        14
    I11(10)   R7        18
    I11(10)   R8        4
    I11(10)   R10       17
    I11(10)   R14       16
    I11(10)   R22       1
    MARKER    'MARKER'                 'INTEND'
    C12(11)   OBJ       6
    C12(11)   R1        -3
    C12(11)   R2        -2
    C12(11)   R5        12
    C12(11)   R7        4
    C12(11)   R11       10
    C12(11)   R13       14
    C12(11)   R14       6
    C12(11)   R15       -1
    C12(11)   R17       17
    C12(11)   R19       18
    C12(11)   R20       10
    C13(14)   OBJ       -1
    C13(14)   R0        2
    C13(14)   R1        -5
    C13(14)   R2        2
    C13(14)   R4        6
    C13(14)   R5        4
    C13(14)   R6        15
    C13(14)   R7        14
    C13(14)   R10       16
    C13(14)   R11       1
    C13(14)   R12       15
    C13(14)   R16       18
    C13(14)   R18       14
    C13(14)   R19       17
    C13(14)   R20       2
    C14(9)    R0        4
    C14(9)    R1        7
    C14(9)    R2        4
    C14(9)    R10       -1
    C14(9)    R11       2
    C14(9)    R12       4
    C14(9)    R14       5
    C14(9)    R15       4
    C14(9)    R21       3
    C15(13)   OBJ       -4
    C15(13)   R0        8
    C15(13)   R1        3
    C15(13)   R2        -2
    C15(13)   R4        10
    C15(13)   R6        19
    C15(13)   R9        10
    C15(13)   R11       10
    C15(13)   R13       17
    C15(13)   R14       12
    C15(13)   R15       12
    C15(13)   R17       9
    C15(13)   R19       2
    C15(13)   R20       -1
    C16(12)   OBJ       -1
    C16(12)   R0        7
    C16(12)   R1        -3
    C16(12)   R2        -4
    C16(12)   R4        15
    C16(12)   R5        8
    C16(12)   R9        1
    C16(12)   R10       9
    C16(12)   R11       18
    C16(12)   R13       -1
    C16(12)   R15       -1
    C16(12)   R18       1
    C16(12)   R20       16
    C17(12)   OBJ       -4
    C17(12)   R0        2
    C17(12)   R1        1
    C17(12)   R2        1
    C17(12)   R4        9
    C17(12)   R6        12
    C17(12)   R9        3
    C17(12)   R12       4
    C17(12)   R13       16
    C17(12)   R14       9
    C17(12)   R17       14
    C17(12)   R19       10
    C17(12)   R21       5
    C18(9)    OBJ       -5
    C18(9)    R1        -7
    C18(9)    R2        -4
    C18(9)    R3        9
    C18(9)    R5        5
    C18(9)    R6        10
    C18(9)    R7        17
    C18(9)    R8        18
    C18(9)    R16       4
    C18(9)    R17       10
    C19(13)   OBJ       -9
    C19(13)   R0        -2
    C19(13)   R1        5
    C19(13)   R2        1
    C19(13)   R4        11
    C19(13)   R7        6
    C19(13)   R8        4
    C19(13)   R10       11
    C19(13)   R12       10
    C19(13)   R14       4
    C19(13)   R15       11
    C19(13)   R16       3
    C19(13)   R17       1
    C19(13)   R21       6
    C20(1)    R3        1
    C21(1)    R4        1
    C22(1)    R5        1
    C23(1)    R6        1
    C24(1)    R7        1
    C25(1)    R8        1
    C26(1)    R9        1
    C27(1)    R10       1
    C28(1)    R11       1
    C29(1)    R12       1
    C30(1)    R13       1
    C31(1)    R14       1
    C32(1)    R15       1
    C33(1)    R16       1
    C34(1)    R17       1
    C35(1)    R18       1
    C36(1)    R19       1
    C37(1)    R20       1
    C38(1)    R21       1
    C39(1)    R22       1
RHS
    RHS1      R0        -85
    RHS1      R1        -3.1577777777777777e+02
    RHS1      R2        -1.7644444444444443e+02
    RHS1      R3        71
    RHS1      R4        62
    RHS1      R5        95
    RHS1      R6        72
    RHS1      R7        81
    RHS1      R8        63
    RHS1      R9        99
    RHS1      R10       81
    RHS1      R11       74
    RHS1      R12       83
    RHS1      R13       71
    RHS1      R14       75
    RHS1      R15       88
    RHS1      R16       54
    RHS1      R17       56
    RHS1      R18       75
    RHS1      R19       85
    RHS1      R20       93
    RHS1      R21       97
    RHS1      R22       4
BOUNDS
 UP BND1      I0(10)    1
 UP BND1      I1(12)    1
 UP BND1      I2(9)     1
 UP BND1      I3(14)    1
 UP BND1      I4(9)     1
 UP BND1      I5(12)    1
 UP BND1      I6(11)    1
 UP BND1      I7(10)    1
 UP BND1      I8(10)    1
 UP BND1      I9(10)    1
 UP BND1      I10(7)    1
 UP BND1      I11(10)   1
ENDATA
